c SAT-encoding for the no-three-in-line problem of N=5
p cnf 367 2374
-26 -27 0
-26 -28 0
-27 -28 0
-26 3 0
-26 12 0
-3 -12 26 0
-27 3 0
-27 21 0
-3 -21 27 0
-28 12 0
-28 21 0
-12 -21 28 0
-29 -30 0
-29 -31 0
-30 -31 0
-29 5 0
-29 14 0
-5 -14 29 0
-30 5 0
-30 23 0
-5 -23 30 0
-31 14 0
-31 23 0
-14 -23 31 0
-32 -33 0
-32 -34 0
-33 -34 0
-32 4 0
-32 13 0
-4 -13 32 0
-33 4 0
-33 22 0
-4 -22 33 0
-34 13 0
-34 22 0
-13 -22 34 0
-35 -36 0
-35 -37 0
-36 -37 0
-35 15 0
-35 19 0
-15 -19 35 0
-36 15 0
-36 23 0
-15 -23 36 0
-37 19 0
-37 23 0
-19 -23 37 0
-38 -39 0
-38 -40 0
-38 -41 0
-38 -42 0
-38 -43 0
-39 -40 0
-39 -41 0
-39 -42 0
-39 -43 0
-40 -41 0
-40 -42 0
-40 -43 0
-41 -42 0
-41 -43 0
-42 -43 0
-38 10 0
-38 14 0
-10 -14 38 0
-39 10 0
-39 18 0
-10 -18 39 0
-40 10 0
-40 22 0
-10 -22 40 0
-41 14 0
-41 18 0
-14 -18 41 0
-42 14 0
-42 22 0
-14 -22 42 0
-43 18 0
-43 22 0
-18 -22 43 0
-44 -45 0
-44 -46 0
-44 -47 0
-44 -48 0
-44 -49 0
-44 -50 0
-44 -51 0
-44 -52 0
-44 -53 0
-45 -46 0
-45 -47 0
-45 -48 0
-45 -49 0
-45 -50 0
-45 -51 0
-45 -52 0
-45 -53 0
-46 -47 0
-46 -48 0
-46 -49 0
-46 -50 0
-46 -51 0
-46 -52 0
-46 -53 0
-47 -48 0
-47 -49 0
-47 -50 0
-47 -51 0
-47 -52 0
-47 -53 0
-48 -49 0
-48 -50 0
-48 -51 0
-48 -52 0
-48 -53 0
-49 -50 0
-49 -51 0
-49 -52 0
-49 -53 0
-50 -51 0
-50 -52 0
-50 -53 0
-51 -52 0
-51 -53 0
-52 -53 0
-44 5 0
-44 9 0
-5 -9 44 0
-45 5 0
-45 13 0
-5 -13 45 0
-46 5 0
-46 17 0
-5 -17 46 0
-47 5 0
-47 21 0
-5 -21 47 0
-48 9 0
-48 13 0
-9 -13 48 0
-49 9 0
-49 17 0
-9 -17 49 0
-50 9 0
-50 21 0
-9 -21 50 0
-51 13 0
-51 17 0
-13 -17 51 0
-52 13 0
-52 21 0
-13 -21 52 0
-53 17 0
-53 21 0
-17 -21 53 0
-54 -55 0
-54 -56 0
-54 -57 0
-54 -58 0
-54 -59 0
-55 -56 0
-55 -57 0
-55 -58 0
-55 -59 0
-56 -57 0
-56 -58 0
-56 -59 0
-57 -58 0
-57 -59 0
-58 -59 0
-54 4 0
-54 8 0
-4 -8 54 0
-55 4 0
-55 12 0
-4 -12 55 0
-56 4 0
-56 16 0
-4 -16 56 0
-57 8 0
-57 12 0
-8 -12 57 0
-58 8 0
-58 16 0
-8 -16 58 0
-59 12 0
-59 16 0
-12 -16 59 0
-60 -61 0
-60 -62 0
-61 -62 0
-60 3 0
-60 7 0
-3 -7 60 0
-61 3 0
-61 11 0
-3 -11 61 0
-62 7 0
-62 11 0
-7 -11 62 0
-63 -64 0
-63 -65 0
-64 -65 0
-63 15 0
-63 18 0
-15 -18 63 0
-64 15 0
-64 21 0
-15 -21 64 0
-65 18 0
-65 21 0
-18 -21 65 0
-66 -67 0
-66 -68 0
-67 -68 0
-66 5 0
-66 8 0
-5 -8 66 0
-67 5 0
-67 11 0
-5 -11 67 0
-68 8 0
-68 11 0
-8 -11 68 0
-69 -70 0
-69 -71 0
-70 -71 0
-69 10 0
-69 13 0
-10 -13 69 0
-70 10 0
-70 16 0
-10 -16 70 0
-71 13 0
-71 16 0
-13 -16 71 0
72 73 74 75 76 77 78 79 80 81 0
-72 -73 0
-72 -74 0
-72 -75 0
-72 -76 0
-72 -77 0
-72 -78 0
-72 -79 0
-72 -80 0
-72 -81 0
-73 -74 0
-73 -75 0
-73 -76 0
-73 -77 0
-73 -78 0
-73 -79 0
-73 -80 0
-73 -81 0
-74 -75 0
-74 -76 0
-74 -77 0
-74 -78 0
-74 -79 0
-74 -80 0
-74 -81 0
-75 -76 0
-75 -77 0
-75 -78 0
-75 -79 0
-75 -80 0
-75 -81 0
-76 -77 0
-76 -78 0
-76 -79 0
-76 -80 0
-76 -81 0
-77 -78 0
-77 -79 0
-77 -80 0
-77 -81 0
-78 -79 0
-78 -80 0
-78 -81 0
-79 -80 0
-79 -81 0
-80 -81 0
-72 1 0
-72 2 0
-1 -2 72 0
-73 1 0
-73 3 0
-1 -3 73 0
-74 1 0
-74 4 0
-1 -4 74 0
-75 1 0
-75 5 0
-1 -5 75 0
-76 2 0
-76 3 0
-2 -3 76 0
-77 2 0
-77 4 0
-2 -4 77 0
-78 2 0
-78 5 0
-2 -5 78 0
-79 3 0
-79 4 0
-3 -4 79 0
-80 3 0
-80 5 0
-3 -5 80 0
-81 4 0
-81 5 0
-4 -5 81 0
82 83 84 85 86 87 88 89 90 91 0
-82 -83 0
-82 -84 0
-82 -85 0
-82 -86 0
-82 -87 0
-82 -88 0
-82 -89 0
-82 -90 0
-82 -91 0
-83 -84 0
-83 -85 0
-83 -86 0
-83 -87 0
-83 -88 0
-83 -89 0
-83 -90 0
-83 -91 0
-84 -85 0
-84 -86 0
-84 -87 0
-84 -88 0
-84 -89 0
-84 -90 0
-84 -91 0
-85 -86 0
-85 -87 0
-85 -88 0
-85 -89 0
-85 -90 0
-85 -91 0
-86 -87 0
-86 -88 0
-86 -89 0
-86 -90 0
-86 -91 0
-87 -88 0
-87 -89 0
-87 -90 0
-87 -91 0
-88 -89 0
-88 -90 0
-88 -91 0
-89 -90 0
-89 -91 0
-90 -91 0
-82 16 0
-82 17 0
-16 -17 82 0
-83 16 0
-83 18 0
-16 -18 83 0
-84 16 0
-84 19 0
-16 -19 84 0
-85 16 0
-85 20 0
-16 -20 85 0
-86 17 0
-86 18 0
-17 -18 86 0
-87 17 0
-87 19 0
-17 -19 87 0
-88 17 0
-88 20 0
-17 -20 88 0
-89 18 0
-89 19 0
-18 -19 89 0
-90 18 0
-90 20 0
-18 -20 90 0
-91 19 0
-91 20 0
-19 -20 91 0
92 93 94 95 96 97 98 99 100 101 0
-92 -93 0
-92 -94 0
-92 -95 0
-92 -96 0
-92 -97 0
-92 -98 0
-92 -99 0
-92 -100 0
-92 -101 0
-93 -94 0
-93 -95 0
-93 -96 0
-93 -97 0
-93 -98 0
-93 -99 0
-93 -100 0
-93 -101 0
-94 -95 0
-94 -96 0
-94 -97 0
-94 -98 0
-94 -99 0
-94 -100 0
-94 -101 0
-95 -96 0
-95 -97 0
-95 -98 0
-95 -99 0
-95 -100 0
-95 -101 0
-96 -97 0
-96 -98 0
-96 -99 0
-96 -100 0
-96 -101 0
-97 -98 0
-97 -99 0
-97 -100 0
-97 -101 0
-98 -99 0
-98 -100 0
-98 -101 0
-99 -100 0
-99 -101 0
-100 -101 0
-92 6 0
-92 7 0
-6 -7 92 0
-93 6 0
-93 8 0
-6 -8 93 0
-94 6 0
-94 9 0
-6 -9 94 0
-95 6 0
-95 10 0
-6 -10 95 0
-96 7 0
-96 8 0
-7 -8 96 0
-97 7 0
-97 9 0
-7 -9 97 0
-98 7 0
-98 10 0
-7 -10 98 0
-99 8 0
-99 9 0
-8 -9 99 0
-100 8 0
-100 10 0
-8 -10 100 0
-101 9 0
-101 10 0
-9 -10 101 0
102 103 104 105 106 107 108 109 110 111 0
-102 -103 0
-102 -104 0
-102 -105 0
-102 -106 0
-102 -107 0
-102 -108 0
-102 -109 0
-102 -110 0
-102 -111 0
-103 -104 0
-103 -105 0
-103 -106 0
-103 -107 0
-103 -108 0
-103 -109 0
-103 -110 0
-103 -111 0
-104 -105 0
-104 -106 0
-104 -107 0
-104 -108 0
-104 -109 0
-104 -110 0
-104 -111 0
-105 -106 0
-105 -107 0
-105 -108 0
-105 -109 0
-105 -110 0
-105 -111 0
-106 -107 0
-106 -108 0
-106 -109 0
-106 -110 0
-106 -111 0
-107 -108 0
-107 -109 0
-107 -110 0
-107 -111 0
-108 -109 0
-108 -110 0
-108 -111 0
-109 -110 0
-109 -111 0
-110 -111 0
-102 11 0
-102 12 0
-11 -12 102 0
-103 11 0
-103 13 0
-11 -13 103 0
-104 11 0
-104 14 0
-11 -14 104 0
-105 11 0
-105 15 0
-11 -15 105 0
-106 12 0
-106 13 0
-12 -13 106 0
-107 12 0
-107 14 0
-12 -14 107 0
-108 12 0
-108 15 0
-12 -15 108 0
-109 13 0
-109 14 0
-13 -14 109 0
-110 13 0
-110 15 0
-13 -15 110 0
-111 14 0
-111 15 0
-14 -15 111 0
112 113 114 115 116 117 118 119 120 121 0
-112 -113 0
-112 -114 0
-112 -115 0
-112 -116 0
-112 -117 0
-112 -118 0
-112 -119 0
-112 -120 0
-112 -121 0
-113 -114 0
-113 -115 0
-113 -116 0
-113 -117 0
-113 -118 0
-113 -119 0
-113 -120 0
-113 -121 0
-114 -115 0
-114 -116 0
-114 -117 0
-114 -118 0
-114 -119 0
-114 -120 0
-114 -121 0
-115 -116 0
-115 -117 0
-115 -118 0
-115 -119 0
-115 -120 0
-115 -121 0
-116 -117 0
-116 -118 0
-116 -119 0
-116 -120 0
-116 -121 0
-117 -118 0
-117 -119 0
-117 -120 0
-117 -121 0
-118 -119 0
-118 -120 0
-118 -121 0
-119 -120 0
-119 -121 0
-120 -121 0
-112 21 0
-112 22 0
-21 -22 112 0
-113 21 0
-113 23 0
-21 -23 113 0
-114 21 0
-114 24 0
-21 -24 114 0
-115 21 0
-115 25 0
-21 -25 115 0
-116 22 0
-116 23 0
-22 -23 116 0
-117 22 0
-117 24 0
-22 -24 117 0
-118 22 0
-118 25 0
-22 -25 118 0
-119 23 0
-119 24 0
-23 -24 119 0
-120 23 0
-120 25 0
-23 -25 120 0
-121 24 0
-121 25 0
-24 -25 121 0
-122 -123 0
-122 -124 0
-123 -124 0
-122 6 0
-122 13 0
-6 -13 122 0
-123 6 0
-123 20 0
-6 -20 123 0
-124 13 0
-124 20 0
-13 -20 124 0
-125 -126 0
-125 -127 0
-126 -127 0
-125 1 0
-125 8 0
-1 -8 125 0
-126 1 0
-126 15 0
-1 -15 126 0
-127 8 0
-127 15 0
-8 -15 127 0
-128 -129 0
-128 -130 0
-129 -130 0
-128 11 0
-128 18 0
-11 -18 128 0
-129 11 0
-129 25 0
-11 -25 129 0
-130 18 0
-130 25 0
-18 -25 130 0
-131 -132 0
-131 -133 0
-131 -134 0
-131 -135 0
-131 -136 0
-132 -133 0
-132 -134 0
-132 -135 0
-132 -136 0
-133 -134 0
-133 -135 0
-133 -136 0
-134 -135 0
-134 -136 0
-135 -136 0
-131 6 0
-131 12 0
-6 -12 131 0
-132 6 0
-132 18 0
-6 -18 132 0
-133 6 0
-133 24 0
-6 -24 133 0
-134 12 0
-134 18 0
-12 -18 134 0
-135 12 0
-135 24 0
-12 -24 135 0
-136 18 0
-136 24 0
-18 -24 136 0
-137 -138 0
-137 -139 0
-138 -139 0
-137 3 0
-137 9 0
-3 -9 137 0
-138 3 0
-138 15 0
-3 -15 138 0
-139 9 0
-139 15 0
-9 -15 139 0
-140 -141 0
-140 -142 0
-140 -143 0
-140 -144 0
-140 -145 0
-140 -146 0
-140 -147 0
-140 -148 0
-140 -149 0
-141 -142 0
-141 -143 0
-141 -144 0
-141 -145 0
-141 -146 0
-141 -147 0
-141 -148 0
-141 -149 0
-142 -143 0
-142 -144 0
-142 -145 0
-142 -146 0
-142 -147 0
-142 -148 0
-142 -149 0
-143 -144 0
-143 -145 0
-143 -146 0
-143 -147 0
-143 -148 0
-143 -149 0
-144 -145 0
-144 -146 0
-144 -147 0
-144 -148 0
-144 -149 0
-145 -146 0
-145 -147 0
-145 -148 0
-145 -149 0
-146 -147 0
-146 -148 0
-146 -149 0
-147 -148 0
-147 -149 0
-148 -149 0
-140 1 0
-140 7 0
-1 -7 140 0
-141 1 0
-141 13 0
-1 -13 141 0
-142 1 0
-142 19 0
-1 -19 142 0
-143 1 0
-143 25 0
-1 -25 143 0
-144 7 0
-144 13 0
-7 -13 144 0
-145 7 0
-145 19 0
-7 -19 145 0
-146 7 0
-146 25 0
-7 -25 146 0
-147 13 0
-147 19 0
-13 -19 147 0
-148 13 0
-148 25 0
-13 -25 148 0
-149 19 0
-149 25 0
-19 -25 149 0
-150 -151 0
-150 -152 0
-150 -153 0
-150 -154 0
-150 -155 0
-151 -152 0
-151 -153 0
-151 -154 0
-151 -155 0
-152 -153 0
-152 -154 0
-152 -155 0
-153 -154 0
-153 -155 0
-154 -155 0
-150 2 0
-150 8 0
-2 -8 150 0
-151 2 0
-151 14 0
-2 -14 151 0
-152 2 0
-152 20 0
-2 -20 152 0
-153 8 0
-153 14 0
-8 -14 153 0
-154 8 0
-154 20 0
-8 -20 154 0
-155 14 0
-155 20 0
-14 -20 155 0
-156 -157 0
-156 -158 0
-157 -158 0
-156 11 0
-156 17 0
-11 -17 156 0
-157 11 0
-157 23 0
-11 -23 157 0
-158 17 0
-158 23 0
-17 -23 158 0
-159 -160 0
-159 -161 0
-160 -161 0
-159 3 0
-159 14 0
-3 -14 159 0
-160 3 0
-160 25 0
-3 -25 160 0
-161 14 0
-161 25 0
-14 -25 161 0
-162 -163 0
-162 -164 0
-163 -164 0
-162 1 0
-162 12 0
-1 -12 162 0
-163 1 0
-163 23 0
-1 -23 163 0
-164 12 0
-164 23 0
-12 -23 164 0
-165 -166 0
-165 -167 0
-166 -167 0
-165 2 0
-165 13 0
-2 -13 165 0
-166 2 0
-166 24 0
-2 -24 166 0
-167 13 0
-167 24 0
-13 -24 167 0
168 169 170 171 172 173 174 175 176 177 0
-168 -169 0
-168 -170 0
-168 -171 0
-168 -172 0
-168 -173 0
-168 -174 0
-168 -175 0
-168 -176 0
-168 -177 0
-169 -170 0
-169 -171 0
-169 -172 0
-169 -173 0
-169 -174 0
-169 -175 0
-169 -176 0
-169 -177 0
-170 -171 0
-170 -172 0
-170 -173 0
-170 -174 0
-170 -175 0
-170 -176 0
-170 -177 0
-171 -172 0
-171 -173 0
-171 -174 0
-171 -175 0
-171 -176 0
-171 -177 0
-172 -173 0
-172 -174 0
-172 -175 0
-172 -176 0
-172 -177 0
-173 -174 0
-173 -175 0
-173 -176 0
-173 -177 0
-174 -175 0
-174 -176 0
-174 -177 0
-175 -176 0
-175 -177 0
-176 -177 0
-168 1 0
-168 6 0
-1 -6 168 0
-169 1 0
-169 11 0
-1 -11 169 0
-170 1 0
-170 16 0
-1 -16 170 0
-171 1 0
-171 21 0
-1 -21 171 0
-172 6 0
-172 11 0
-6 -11 172 0
-173 6 0
-173 16 0
-6 -16 173 0
-174 6 0
-174 21 0
-6 -21 174 0
-175 11 0
-175 16 0
-11 -16 175 0
-176 11 0
-176 21 0
-11 -21 176 0
-177 16 0
-177 21 0
-16 -21 177 0
178 179 180 181 182 183 184 185 186 187 0
-178 -179 0
-178 -180 0
-178 -181 0
-178 -182 0
-178 -183 0
-178 -184 0
-178 -185 0
-178 -186 0
-178 -187 0
-179 -180 0
-179 -181 0
-179 -182 0
-179 -183 0
-179 -184 0
-179 -185 0
-179 -186 0
-179 -187 0
-180 -181 0
-180 -182 0
-180 -183 0
-180 -184 0
-180 -185 0
-180 -186 0
-180 -187 0
-181 -182 0
-181 -183 0
-181 -184 0
-181 -185 0
-181 -186 0
-181 -187 0
-182 -183 0
-182 -184 0
-182 -185 0
-182 -186 0
-182 -187 0
-183 -184 0
-183 -185 0
-183 -186 0
-183 -187 0
-184 -185 0
-184 -186 0
-184 -187 0
-185 -186 0
-185 -187 0
-186 -187 0
-178 1 0
-178 6 0
-1 -6 178 0
-179 1 0
-179 11 0
-1 -11 179 0
-180 1 0
-180 16 0
-1 -16 180 0
-181 1 0
-181 21 0
-1 -21 181 0
-182 6 0
-182 11 0
-6 -11 182 0
-183 6 0
-183 16 0
-6 -16 183 0
-184 6 0
-184 21 0
-6 -21 184 0
-185 11 0
-185 16 0
-11 -16 185 0
-186 11 0
-186 21 0
-11 -21 186 0
-187 16 0
-187 21 0
-16 -21 187 0
188 189 190 191 192 193 194 195 196 197 0
-188 -189 0
-188 -190 0
-188 -191 0
-188 -192 0
-188 -193 0
-188 -194 0
-188 -195 0
-188 -196 0
-188 -197 0
-189 -190 0
-189 -191 0
-189 -192 0
-189 -193 0
-189 -194 0
-189 -195 0
-189 -196 0
-189 -197 0
-190 -191 0
-190 -192 0
-190 -193 0
-190 -194 0
-190 -195 0
-190 -196 0
-190 -197 0
-191 -192 0
-191 -193 0
-191 -194 0
-191 -195 0
-191 -196 0
-191 -197 0
-192 -193 0
-192 -194 0
-192 -195 0
-192 -196 0
-192 -197 0
-193 -194 0
-193 -195 0
-193 -196 0
-193 -197 0
-194 -195 0
-194 -196 0
-194 -197 0
-195 -196 0
-195 -197 0
-196 -197 0
-188 5 0
-188 10 0
-5 -10 188 0
-189 5 0
-189 15 0
-5 -15 189 0
-190 5 0
-190 20 0
-5 -20 190 0
-191 5 0
-191 25 0
-5 -25 191 0
-192 10 0
-192 15 0
-10 -15 192 0
-193 10 0
-193 20 0
-10 -20 193 0
-194 10 0
-194 25 0
-10 -25 194 0
-195 15 0
-195 20 0
-15 -20 195 0
-196 15 0
-196 25 0
-15 -25 196 0
-197 20 0
-197 25 0
-20 -25 197 0
198 199 200 201 202 203 204 205 206 207 0
-198 -199 0
-198 -200 0
-198 -201 0
-198 -202 0
-198 -203 0
-198 -204 0
-198 -205 0
-198 -206 0
-198 -207 0
-199 -200 0
-199 -201 0
-199 -202 0
-199 -203 0
-199 -204 0
-199 -205 0
-199 -206 0
-199 -207 0
-200 -201 0
-200 -202 0
-200 -203 0
-200 -204 0
-200 -205 0
-200 -206 0
-200 -207 0
-201 -202 0
-201 -203 0
-201 -204 0
-201 -205 0
-201 -206 0
-201 -207 0
-202 -203 0
-202 -204 0
-202 -205 0
-202 -206 0
-202 -207 0
-203 -204 0
-203 -205 0
-203 -206 0
-203 -207 0
-204 -205 0
-204 -206 0
-204 -207 0
-205 -206 0
-205 -207 0
-206 -207 0
-198 5 0
-198 10 0
-5 -10 198 0
-199 5 0
-199 15 0
-5 -15 199 0
-200 5 0
-200 20 0
-5 -20 200 0
-201 5 0
-201 25 0
-5 -25 201 0
-202 10 0
-202 15 0
-10 -15 202 0
-203 10 0
-203 20 0
-10 -20 203 0
-204 10 0
-204 25 0
-10 -25 204 0
-205 15 0
-205 20 0
-15 -20 205 0
-206 15 0
-206 25 0
-15 -25 206 0
-207 20 0
-207 25 0
-20 -25 207 0
208 209 210 211 212 213 214 215 216 217 0
-208 -209 0
-208 -210 0
-208 -211 0
-208 -212 0
-208 -213 0
-208 -214 0
-208 -215 0
-208 -216 0
-208 -217 0
-209 -210 0
-209 -211 0
-209 -212 0
-209 -213 0
-209 -214 0
-209 -215 0
-209 -216 0
-209 -217 0
-210 -211 0
-210 -212 0
-210 -213 0
-210 -214 0
-210 -215 0
-210 -216 0
-210 -217 0
-211 -212 0
-211 -213 0
-211 -214 0
-211 -215 0
-211 -216 0
-211 -217 0
-212 -213 0
-212 -214 0
-212 -215 0
-212 -216 0
-212 -217 0
-213 -214 0
-213 -215 0
-213 -216 0
-213 -217 0
-214 -215 0
-214 -216 0
-214 -217 0
-215 -216 0
-215 -217 0
-216 -217 0
-208 2 0
-208 7 0
-2 -7 208 0
-209 2 0
-209 12 0
-2 -12 209 0
-210 2 0
-210 17 0
-2 -17 210 0
-211 2 0
-211 22 0
-2 -22 211 0
-212 7 0
-212 12 0
-7 -12 212 0
-213 7 0
-213 17 0
-7 -17 213 0
-214 7 0
-214 22 0
-7 -22 214 0
-215 12 0
-215 17 0
-12 -17 215 0
-216 12 0
-216 22 0
-12 -22 216 0
-217 17 0
-217 22 0
-17 -22 217 0
218 219 220 221 222 223 224 225 226 227 0
-218 -219 0
-218 -220 0
-218 -221 0
-218 -222 0
-218 -223 0
-218 -224 0
-218 -225 0
-218 -226 0
-218 -227 0
-219 -220 0
-219 -221 0
-219 -222 0
-219 -223 0
-219 -224 0
-219 -225 0
-219 -226 0
-219 -227 0
-220 -221 0
-220 -222 0
-220 -223 0
-220 -224 0
-220 -225 0
-220 -226 0
-220 -227 0
-221 -222 0
-221 -223 0
-221 -224 0
-221 -225 0
-221 -226 0
-221 -227 0
-222 -223 0
-222 -224 0
-222 -225 0
-222 -226 0
-222 -227 0
-223 -224 0
-223 -225 0
-223 -226 0
-223 -227 0
-224 -225 0
-224 -226 0
-224 -227 0
-225 -226 0
-225 -227 0
-226 -227 0
-218 2 0
-218 7 0
-2 -7 218 0
-219 2 0
-219 12 0
-2 -12 219 0
-220 2 0
-220 17 0
-2 -17 220 0
-221 2 0
-221 22 0
-2 -22 221 0
-222 7 0
-222 12 0
-7 -12 222 0
-223 7 0
-223 17 0
-7 -17 223 0
-224 7 0
-224 22 0
-7 -22 224 0
-225 12 0
-225 17 0
-12 -17 225 0
-226 12 0
-226 22 0
-12 -22 226 0
-227 17 0
-227 22 0
-17 -22 227 0
228 229 230 231 232 233 234 235 236 237 0
-228 -229 0
-228 -230 0
-228 -231 0
-228 -232 0
-228 -233 0
-228 -234 0
-228 -235 0
-228 -236 0
-228 -237 0
-229 -230 0
-229 -231 0
-229 -232 0
-229 -233 0
-229 -234 0
-229 -235 0
-229 -236 0
-229 -237 0
-230 -231 0
-230 -232 0
-230 -233 0
-230 -234 0
-230 -235 0
-230 -236 0
-230 -237 0
-231 -232 0
-231 -233 0
-231 -234 0
-231 -235 0
-231 -236 0
-231 -237 0
-232 -233 0
-232 -234 0
-232 -235 0
-232 -236 0
-232 -237 0
-233 -234 0
-233 -235 0
-233 -236 0
-233 -237 0
-234 -235 0
-234 -236 0
-234 -237 0
-235 -236 0
-235 -237 0
-236 -237 0
-228 5 0
-228 10 0
-5 -10 228 0
-229 5 0
-229 15 0
-5 -15 229 0
-230 5 0
-230 20 0
-5 -20 230 0
-231 5 0
-231 25 0
-5 -25 231 0
-232 10 0
-232 15 0
-10 -15 232 0
-233 10 0
-233 20 0
-10 -20 233 0
-234 10 0
-234 25 0
-10 -25 234 0
-235 15 0
-235 20 0
-15 -20 235 0
-236 15 0
-236 25 0
-15 -25 236 0
-237 20 0
-237 25 0
-20 -25 237 0
238 239 240 241 242 243 244 245 246 247 0
-238 -239 0
-238 -240 0
-238 -241 0
-238 -242 0
-238 -243 0
-238 -244 0
-238 -245 0
-238 -246 0
-238 -247 0
-239 -240 0
-239 -241 0
-239 -242 0
-239 -243 0
-239 -244 0
-239 -245 0
-239 -246 0
-239 -247 0
-240 -241 0
-240 -242 0
-240 -243 0
-240 -244 0
-240 -245 0
-240 -246 0
-240 -247 0
-241 -242 0
-241 -243 0
-241 -244 0
-241 -245 0
-241 -246 0
-241 -247 0
-242 -243 0
-242 -244 0
-242 -245 0
-242 -246 0
-242 -247 0
-243 -244 0
-243 -245 0
-243 -246 0
-243 -247 0
-244 -245 0
-244 -246 0
-244 -247 0
-245 -246 0
-245 -247 0
-246 -247 0
-238 4 0
-238 9 0
-4 -9 238 0
-239 4 0
-239 14 0
-4 -14 239 0
-240 4 0
-240 19 0
-4 -19 240 0
-241 4 0
-241 24 0
-4 -24 241 0
-242 9 0
-242 14 0
-9 -14 242 0
-243 9 0
-243 19 0
-9 -19 243 0
-244 9 0
-244 24 0
-9 -24 244 0
-245 14 0
-245 19 0
-14 -19 245 0
-246 14 0
-246 24 0
-14 -24 246 0
-247 19 0
-247 24 0
-19 -24 247 0
248 249 250 251 252 253 254 255 256 257 0
-248 -249 0
-248 -250 0
-248 -251 0
-248 -252 0
-248 -253 0
-248 -254 0
-248 -255 0
-248 -256 0
-248 -257 0
-249 -250 0
-249 -251 0
-249 -252 0
-249 -253 0
-249 -254 0
-249 -255 0
-249 -256 0
-249 -257 0
-250 -251 0
-250 -252 0
-250 -253 0
-250 -254 0
-250 -255 0
-250 -256 0
-250 -257 0
-251 -252 0
-251 -253 0
-251 -254 0
-251 -255 0
-251 -256 0
-251 -257 0
-252 -253 0
-252 -254 0
-252 -255 0
-252 -256 0
-252 -257 0
-253 -254 0
-253 -255 0
-253 -256 0
-253 -257 0
-254 -255 0
-254 -256 0
-254 -257 0
-255 -256 0
-255 -257 0
-256 -257 0
-248 3 0
-248 8 0
-3 -8 248 0
-249 3 0
-249 13 0
-3 -13 249 0
-250 3 0
-250 18 0
-3 -18 250 0
-251 3 0
-251 23 0
-3 -23 251 0
-252 8 0
-252 13 0
-8 -13 252 0
-253 8 0
-253 18 0
-8 -18 253 0
-254 8 0
-254 23 0
-8 -23 254 0
-255 13 0
-255 18 0
-13 -18 255 0
-256 13 0
-256 23 0
-13 -23 256 0
-257 18 0
-257 23 0
-18 -23 257 0
258 259 260 261 262 263 264 265 266 267 0
-258 -259 0
-258 -260 0
-258 -261 0
-258 -262 0
-258 -263 0
-258 -264 0
-258 -265 0
-258 -266 0
-258 -267 0
-259 -260 0
-259 -261 0
-259 -262 0
-259 -263 0
-259 -264 0
-259 -265 0
-259 -266 0
-259 -267 0
-260 -261 0
-260 -262 0
-260 -263 0
-260 -264 0
-260 -265 0
-260 -266 0
-260 -267 0
-261 -262 0
-261 -263 0
-261 -264 0
-261 -265 0
-261 -266 0
-261 -267 0
-262 -263 0
-262 -264 0
-262 -265 0
-262 -266 0
-262 -267 0
-263 -264 0
-263 -265 0
-263 -266 0
-263 -267 0
-264 -265 0
-264 -266 0
-264 -267 0
-265 -266 0
-265 -267 0
-266 -267 0
-258 1 0
-258 6 0
-1 -6 258 0
-259 1 0
-259 11 0
-1 -11 259 0
-260 1 0
-260 16 0
-1 -16 260 0
-261 1 0
-261 21 0
-1 -21 261 0
-262 6 0
-262 11 0
-6 -11 262 0
-263 6 0
-263 16 0
-6 -16 263 0
-264 6 0
-264 21 0
-6 -21 264 0
-265 11 0
-265 16 0
-11 -16 265 0
-266 11 0
-266 21 0
-11 -21 266 0
-267 16 0
-267 21 0
-16 -21 267 0
268 269 270 271 272 273 274 275 276 277 0
-268 -269 0
-268 -270 0
-268 -271 0
-268 -272 0
-268 -273 0
-268 -274 0
-268 -275 0
-268 -276 0
-268 -277 0
-269 -270 0
-269 -271 0
-269 -272 0
-269 -273 0
-269 -274 0
-269 -275 0
-269 -276 0
-269 -277 0
-270 -271 0
-270 -272 0
-270 -273 0
-270 -274 0
-270 -275 0
-270 -276 0
-270 -277 0
-271 -272 0
-271 -273 0
-271 -274 0
-271 -275 0
-271 -276 0
-271 -277 0
-272 -273 0
-272 -274 0
-272 -275 0
-272 -276 0
-272 -277 0
-273 -274 0
-273 -275 0
-273 -276 0
-273 -277 0
-274 -275 0
-274 -276 0
-274 -277 0
-275 -276 0
-275 -277 0
-276 -277 0
-268 1 0
-268 6 0
-1 -6 268 0
-269 1 0
-269 11 0
-1 -11 269 0
-270 1 0
-270 16 0
-1 -16 270 0
-271 1 0
-271 21 0
-1 -21 271 0
-272 6 0
-272 11 0
-6 -11 272 0
-273 6 0
-273 16 0
-6 -16 273 0
-274 6 0
-274 21 0
-6 -21 274 0
-275 11 0
-275 16 0
-11 -16 275 0
-276 11 0
-276 21 0
-11 -21 276 0
-277 16 0
-277 21 0
-16 -21 277 0
278 279 280 281 282 283 284 285 286 287 0
-278 -279 0
-278 -280 0
-278 -281 0
-278 -282 0
-278 -283 0
-278 -284 0
-278 -285 0
-278 -286 0
-278 -287 0
-279 -280 0
-279 -281 0
-279 -282 0
-279 -283 0
-279 -284 0
-279 -285 0
-279 -286 0
-279 -287 0
-280 -281 0
-280 -282 0
-280 -283 0
-280 -284 0
-280 -285 0
-280 -286 0
-280 -287 0
-281 -282 0
-281 -283 0
-281 -284 0
-281 -285 0
-281 -286 0
-281 -287 0
-282 -283 0
-282 -284 0
-282 -285 0
-282 -286 0
-282 -287 0
-283 -284 0
-283 -285 0
-283 -286 0
-283 -287 0
-284 -285 0
-284 -286 0
-284 -287 0
-285 -286 0
-285 -287 0
-286 -287 0
-278 5 0
-278 10 0
-5 -10 278 0
-279 5 0
-279 15 0
-5 -15 279 0
-280 5 0
-280 20 0
-5 -20 280 0
-281 5 0
-281 25 0
-5 -25 281 0
-282 10 0
-282 15 0
-10 -15 282 0
-283 10 0
-283 20 0
-10 -20 283 0
-284 10 0
-284 25 0
-10 -25 284 0
-285 15 0
-285 20 0
-15 -20 285 0
-286 15 0
-286 25 0
-15 -25 286 0
-287 20 0
-287 25 0
-20 -25 287 0
288 289 290 291 292 293 294 295 296 297 0
-288 -289 0
-288 -290 0
-288 -291 0
-288 -292 0
-288 -293 0
-288 -294 0
-288 -295 0
-288 -296 0
-288 -297 0
-289 -290 0
-289 -291 0
-289 -292 0
-289 -293 0
-289 -294 0
-289 -295 0
-289 -296 0
-289 -297 0
-290 -291 0
-290 -292 0
-290 -293 0
-290 -294 0
-290 -295 0
-290 -296 0
-290 -297 0
-291 -292 0
-291 -293 0
-291 -294 0
-291 -295 0
-291 -296 0
-291 -297 0
-292 -293 0
-292 -294 0
-292 -295 0
-292 -296 0
-292 -297 0
-293 -294 0
-293 -295 0
-293 -296 0
-293 -297 0
-294 -295 0
-294 -296 0
-294 -297 0
-295 -296 0
-295 -297 0
-296 -297 0
-288 4 0
-288 9 0
-4 -9 288 0
-289 4 0
-289 14 0
-4 -14 289 0
-290 4 0
-290 19 0
-4 -19 290 0
-291 4 0
-291 24 0
-4 -24 291 0
-292 9 0
-292 14 0
-9 -14 292 0
-293 9 0
-293 19 0
-9 -19 293 0
-294 9 0
-294 24 0
-9 -24 294 0
-295 14 0
-295 19 0
-14 -19 295 0
-296 14 0
-296 24 0
-14 -24 296 0
-297 19 0
-297 24 0
-19 -24 297 0
298 299 300 301 302 303 304 305 306 307 0
-298 -299 0
-298 -300 0
-298 -301 0
-298 -302 0
-298 -303 0
-298 -304 0
-298 -305 0
-298 -306 0
-298 -307 0
-299 -300 0
-299 -301 0
-299 -302 0
-299 -303 0
-299 -304 0
-299 -305 0
-299 -306 0
-299 -307 0
-300 -301 0
-300 -302 0
-300 -303 0
-300 -304 0
-300 -305 0
-300 -306 0
-300 -307 0
-301 -302 0
-301 -303 0
-301 -304 0
-301 -305 0
-301 -306 0
-301 -307 0
-302 -303 0
-302 -304 0
-302 -305 0
-302 -306 0
-302 -307 0
-303 -304 0
-303 -305 0
-303 -306 0
-303 -307 0
-304 -305 0
-304 -306 0
-304 -307 0
-305 -306 0
-305 -307 0
-306 -307 0
-298 3 0
-298 8 0
-3 -8 298 0
-299 3 0
-299 13 0
-3 -13 299 0
-300 3 0
-300 18 0
-3 -18 300 0
-301 3 0
-301 23 0
-3 -23 301 0
-302 8 0
-302 13 0
-8 -13 302 0
-303 8 0
-303 18 0
-8 -18 303 0
-304 8 0
-304 23 0
-8 -23 304 0
-305 13 0
-305 18 0
-13 -18 305 0
-306 13 0
-306 23 0
-13 -23 306 0
-307 18 0
-307 23 0
-18 -23 307 0
308 309 310 311 312 313 314 315 316 317 0
-308 -309 0
-308 -310 0
-308 -311 0
-308 -312 0
-308 -313 0
-308 -314 0
-308 -315 0
-308 -316 0
-308 -317 0
-309 -310 0
-309 -311 0
-309 -312 0
-309 -313 0
-309 -314 0
-309 -315 0
-309 -316 0
-309 -317 0
-310 -311 0
-310 -312 0
-310 -313 0
-310 -314 0
-310 -315 0
-310 -316 0
-310 -317 0
-311 -312 0
-311 -313 0
-311 -314 0
-311 -315 0
-311 -316 0
-311 -317 0
-312 -313 0
-312 -314 0
-312 -315 0
-312 -316 0
-312 -317 0
-313 -314 0
-313 -315 0
-313 -316 0
-313 -317 0
-314 -315 0
-314 -316 0
-314 -317 0
-315 -316 0
-315 -317 0
-316 -317 0
-308 2 0
-308 7 0
-2 -7 308 0
-309 2 0
-309 12 0
-2 -12 309 0
-310 2 0
-310 17 0
-2 -17 310 0
-311 2 0
-311 22 0
-2 -22 311 0
-312 7 0
-312 12 0
-7 -12 312 0
-313 7 0
-313 17 0
-7 -17 313 0
-314 7 0
-314 22 0
-7 -22 314 0
-315 12 0
-315 17 0
-12 -17 315 0
-316 12 0
-316 22 0
-12 -22 316 0
-317 17 0
-317 22 0
-17 -22 317 0
318 319 320 321 322 323 324 325 326 327 0
-318 -319 0
-318 -320 0
-318 -321 0
-318 -322 0
-318 -323 0
-318 -324 0
-318 -325 0
-318 -326 0
-318 -327 0
-319 -320 0
-319 -321 0
-319 -322 0
-319 -323 0
-319 -324 0
-319 -325 0
-319 -326 0
-319 -327 0
-320 -321 0
-320 -322 0
-320 -323 0
-320 -324 0
-320 -325 0
-320 -326 0
-320 -327 0
-321 -322 0
-321 -323 0
-321 -324 0
-321 -325 0
-321 -326 0
-321 -327 0
-322 -323 0
-322 -324 0
-322 -325 0
-322 -326 0
-322 -327 0
-323 -324 0
-323 -325 0
-323 -326 0
-323 -327 0
-324 -325 0
-324 -326 0
-324 -327 0
-325 -326 0
-325 -327 0
-326 -327 0
-318 4 0
-318 9 0
-4 -9 318 0
-319 4 0
-319 14 0
-4 -14 319 0
-320 4 0
-320 19 0
-4 -19 320 0
-321 4 0
-321 24 0
-4 -24 321 0
-322 9 0
-322 14 0
-9 -14 322 0
-323 9 0
-323 19 0
-9 -19 323 0
-324 9 0
-324 24 0
-9 -24 324 0
-325 14 0
-325 19 0
-14 -19 325 0
-326 14 0
-326 24 0
-14 -24 326 0
-327 19 0
-327 24 0
-19 -24 327 0
328 329 330 331 332 333 334 335 336 337 0
-328 -329 0
-328 -330 0
-328 -331 0
-328 -332 0
-328 -333 0
-328 -334 0
-328 -335 0
-328 -336 0
-328 -337 0
-329 -330 0
-329 -331 0
-329 -332 0
-329 -333 0
-329 -334 0
-329 -335 0
-329 -336 0
-329 -337 0
-330 -331 0
-330 -332 0
-330 -333 0
-330 -334 0
-330 -335 0
-330 -336 0
-330 -337 0
-331 -332 0
-331 -333 0
-331 -334 0
-331 -335 0
-331 -336 0
-331 -337 0
-332 -333 0
-332 -334 0
-332 -335 0
-332 -336 0
-332 -337 0
-333 -334 0
-333 -335 0
-333 -336 0
-333 -337 0
-334 -335 0
-334 -336 0
-334 -337 0
-335 -336 0
-335 -337 0
-336 -337 0
-328 2 0
-328 7 0
-2 -7 328 0
-329 2 0
-329 12 0
-2 -12 329 0
-330 2 0
-330 17 0
-2 -17 330 0
-331 2 0
-331 22 0
-2 -22 331 0
-332 7 0
-332 12 0
-7 -12 332 0
-333 7 0
-333 17 0
-7 -17 333 0
-334 7 0
-334 22 0
-7 -22 334 0
-335 12 0
-335 17 0
-12 -17 335 0
-336 12 0
-336 22 0
-12 -22 336 0
-337 17 0
-337 22 0
-17 -22 337 0
338 339 340 341 342 343 344 345 346 347 0
-338 -339 0
-338 -340 0
-338 -341 0
-338 -342 0
-338 -343 0
-338 -344 0
-338 -345 0
-338 -346 0
-338 -347 0
-339 -340 0
-339 -341 0
-339 -342 0
-339 -343 0
-339 -344 0
-339 -345 0
-339 -346 0
-339 -347 0
-340 -341 0
-340 -342 0
-340 -343 0
-340 -344 0
-340 -345 0
-340 -346 0
-340 -347 0
-341 -342 0
-341 -343 0
-341 -344 0
-341 -345 0
-341 -346 0
-341 -347 0
-342 -343 0
-342 -344 0
-342 -345 0
-342 -346 0
-342 -347 0
-343 -344 0
-343 -345 0
-343 -346 0
-343 -347 0
-344 -345 0
-344 -346 0
-344 -347 0
-345 -346 0
-345 -347 0
-346 -347 0
-338 4 0
-338 9 0
-4 -9 338 0
-339 4 0
-339 14 0
-4 -14 339 0
-340 4 0
-340 19 0
-4 -19 340 0
-341 4 0
-341 24 0
-4 -24 341 0
-342 9 0
-342 14 0
-9 -14 342 0
-343 9 0
-343 19 0
-9 -19 343 0
-344 9 0
-344 24 0
-9 -24 344 0
-345 14 0
-345 19 0
-14 -19 345 0
-346 14 0
-346 24 0
-14 -24 346 0
-347 19 0
-347 24 0
-19 -24 347 0
348 349 350 351 352 353 354 355 356 357 0
-348 -349 0
-348 -350 0
-348 -351 0
-348 -352 0
-348 -353 0
-348 -354 0
-348 -355 0
-348 -356 0
-348 -357 0
-349 -350 0
-349 -351 0
-349 -352 0
-349 -353 0
-349 -354 0
-349 -355 0
-349 -356 0
-349 -357 0
-350 -351 0
-350 -352 0
-350 -353 0
-350 -354 0
-350 -355 0
-350 -356 0
-350 -357 0
-351 -352 0
-351 -353 0
-351 -354 0
-351 -355 0
-351 -356 0
-351 -357 0
-352 -353 0
-352 -354 0
-352 -355 0
-352 -356 0
-352 -357 0
-353 -354 0
-353 -355 0
-353 -356 0
-353 -357 0
-354 -355 0
-354 -356 0
-354 -357 0
-355 -356 0
-355 -357 0
-356 -357 0
-348 3 0
-348 8 0
-3 -8 348 0
-349 3 0
-349 13 0
-3 -13 349 0
-350 3 0
-350 18 0
-3 -18 350 0
-351 3 0
-351 23 0
-3 -23 351 0
-352 8 0
-352 13 0
-8 -13 352 0
-353 8 0
-353 18 0
-8 -18 353 0
-354 8 0
-354 23 0
-8 -23 354 0
-355 13 0
-355 18 0
-13 -18 355 0
-356 13 0
-356 23 0
-13 -23 356 0
-357 18 0
-357 23 0
-18 -23 357 0
358 359 360 361 362 363 364 365 366 367 0
-358 -359 0
-358 -360 0
-358 -361 0
-358 -362 0
-358 -363 0
-358 -364 0
-358 -365 0
-358 -366 0
-358 -367 0
-359 -360 0
-359 -361 0
-359 -362 0
-359 -363 0
-359 -364 0
-359 -365 0
-359 -366 0
-359 -367 0
-360 -361 0
-360 -362 0
-360 -363 0
-360 -364 0
-360 -365 0
-360 -366 0
-360 -367 0
-361 -362 0
-361 -363 0
-361 -364 0
-361 -365 0
-361 -366 0
-361 -367 0
-362 -363 0
-362 -364 0
-362 -365 0
-362 -366 0
-362 -367 0
-363 -364 0
-363 -365 0
-363 -366 0
-363 -367 0
-364 -365 0
-364 -366 0
-364 -367 0
-365 -366 0
-365 -367 0
-366 -367 0
-358 3 0
-358 8 0
-3 -8 358 0
-359 3 0
-359 13 0
-3 -13 359 0
-360 3 0
-360 18 0
-3 -18 360 0
-361 3 0
-361 23 0
-3 -23 361 0
-362 8 0
-362 13 0
-8 -13 362 0
-363 8 0
-363 18 0
-8 -18 363 0
-364 8 0
-364 23 0
-8 -23 364 0
-365 13 0
-365 18 0
-13 -18 365 0
-366 13 0
-366 23 0
-13 -23 366 0
-367 18 0
-367 23 0
-18 -23 367 0
